data;

param num_top:=5;

#nodes and edges of the physical network
param n := 10;

set E := (1,2) (1,3) (1,7) (2,4) (2,7) (3,5) (4,8) (5,6) (5,7) (6,7) (6,9) (7,8) (7,9) (8,10) (9,10) ;

#nodes and edges of the virtual networks
set Nl[1] := 9 5 3 2 8 ;
set Nl[2] := 10 6 5 4 8 ;
set Nl[3] := 6 9 5 8 10 ;
set Nl[4] := 3 9 10 4 2 ;
set Nl[5] := 9 6 3 4 1 ;

set El[1] := (5,9) (3,5) (2,3) (2,8) (8,9) (2,9) (3,8) (5,8) (2,5) (3,9) ;
set El[2] := (6,10) (5,6) (4,5) (4,8) (8,10) (5,10) (4,6) (5,8) (4,10) (6,8) ;
set El[3] := (6,9) (5,9) (5,8) (8,10) (6,10) (5,10) (8,9) (9,10) (6,8) (5,6) ;
set El[4] := (3,9) (9,10) (4,10) (2,4) (2,3) (4,9) (2,9) (2,10) (3,10) (3,4) ;
set El[5] := (6,9) (3,6) (3,4) (1,4) (1,9) (4,9) (3,9) (1,3) (4,6) (1,6) ;
